16105
1 0 1 0 0 1 0 1 1 0 0 1 0 0 1 0 0 1 0 0 1 0 0 0 1 1 0 0 0 0 
20 11 8 2 20 5 17 24 2 17 5 8 8 20 17 14 14 17 25 11 2 0 25 2 25 8 2 24 5 5 25 25 2 25 20 20 24 24 0 14 0 14 24 8 24 14 7 20 11 14 25 2 14 5 8 20 17 11 0 14 0 5 20 11 11 11 24 0 24 25 8 20 11 17 24 8 24 20 2 5 20 7 8 17 2 17 17 7 20 5 2 24 17 11 7 5 2 7 25 14 14 17 17 25 17 25 7 11 14 14 14 2 2 11 11 11 24 24 5 24 5 8 25 20 8 0 5 25 0 25 0 11 24 11 8 14 7 5 20 17 0 8 20 14 8 25 25 5 2 5 
